# Objective value = 3.0239394489337042e+02
x[0] 0
x[1] 0
x[2] 1.0000001184486293e+00
x[3] 0
x[4] 0
x[5] 1
x[6] 0
x[7] 0
x[8] 0
x[9] 0
x[10] 0
x[11] 0
x[12] 1.1835468646112805e-07
x[13] 0
x[14] 0
x[15] 1
x[16] 0
x[17] 1
x[18] 0
x[19] 0
x[20] 0
x[21] 0
x[22] 0
x[23] 0
x[24] 1
x[25] 1.0000000591982141e+00
x[26] 1
x[27] 1
x[28] 0
x[29] 0
x[30] 0
x[31] 1
x[32] 0
x[33] 0
x[34] 0
x[35] 1
x[36] 0
x[37] 1
x[38] 0
x[39] 1
x[40] 1.1118488573050377e-07
x[41] 0
x[42] 1.0000000666055926e+00
x[43] 0
x[44] 1.0000001480403076e+00
x[45] 0
x[46] 1
x[47] 0
x[48] 0
x[49] 1
x[50] 1
x[51] 1
x[52] 0
x[53] 0
x[54] 0
x[55] 0
x[56] 0.999999881481481
x[57] 0
x[58] -4.7769368917940174e-08
x[59] 0
x[60] 0
x[61] 0
x[62] 0
x[63] 1
x[64] 0
x[65] 0
x[66] 0
x[67] 1
x[68] 0
x[69] 0
x[70] 0
x[71] 0
x[72] 0
x[73] 0
x[74] 0
x[75] 1.1843591619614474e-07
x[76] 1
x[77] 9.9999993333333270e-01
x[78] 0
x[79] 0
x[80] 0
x[81] 0
x[82] -6.3333333964376755e-08
x[83] 0
x[84] 1
x[85] 1.1846983338251447e-07
x[86] -1.1851851883201991e-07
x[87] 0
x[88] 1
x[89] 1
x[90] 8.0349713462861756e-08
x[91] 1
x[92] 0
x[93] 0
x[94] 0
x[95] 1
x[96] 1.1127345211456002e-07
x[97] 0
x[98] 0
x[99] 1
x[100] -1.0777777764527892e-07
x[101] 0
x[102] 1
x[103] 0
x[104] 0
x[105] -6.6666667297710092e-08
x[106] 0.999999881481481
x[107] 1
x[108] 1
x[109] 0
x[110] 0
x[111] 1
x[112] 1
x[113] 1
x[114] 1
x[115] 0
x[116] 9.9999982222222172e-01
x[117] 1
x[118] 0
x[119] 0
x[120] 1
x[121] 1
x[122] 0
x[123] -1.1851851877686670e-07
x[124] 0
x[125] 0
x[126] 0
x[127] 1
x[128] 1
x[129] 1
x[130] -2.6296296470024122e-08
x[131] 0
x[132] -2.1903123761367273e-07
x[133] 1
x[134] 1
x[135] 0
x[136] 0
x[137] 0
x[138] -6.6666667251640777e-08
x[139] -2.2222222240131373e-07
x[140] 1
x[141] 1
x[142] 1
x[143] 1
x[144] 1
x[145] 0
x[146] 1
x[147] 0
x[148] 0
x[149] 0
x[150] 1
x[151] 0
x[152] 1
x[153] 0
x[154] 0
x[155] 1
x[156] 1
x[157] 0
x[158] 0
x[159] 1
x[160] 1
x[161] 0
x[162] 0
x[163] 0
x[164] 1
x[165] 1
x[166] 1
x[167] 9.9999988481481428e-01
x[168] -2.4730650222438623e-08
x[169] 1
x[170] 9.9999988860280253e-01
x[171] 0
x[172] 1
x[173] 0
x[174] 1
x[175] 1
x[176] 1
x[177] 1.0000000666078528e+00
x[178] 1
x[179] 1
x[180] 1
x[181] 1
x[182] 0
x[183] 0
x[184] 1
x[185] 0
x[186] 2.3695202947624723e-07
x[187] 1
x[188] 1
x[189] 0
x[190] 0
x[191] 0
x[192] 1
x[193] 1.0000002220351041e+00
x[194] 0.999999881481481
x[195] 1.0000001105023317e+00
x[196] 1
x[197] 0
x[198] 1
x[199] -2.22222222408128e-07
x[200] 0
x[201] 1
x[202] 0
x[203] 1
x[204] 0
x[205] 1
x[206] -6.6666667297710092e-08
x[207] 1.0000001182594338e+00
x[208] 1
x[209] 1
x[210] 0
x[211] 0
x[212] -1.1518518569098285e-07
x[213] 1.0000000656727848e+00
x[214] 0
x[215] 1.0000000221668344e+00
x[216] 0
x[217] 0
x[218] 9.9999985624338572e-01
x[219] 1.0000000294956775e+00
x[220] 1
x[221] 0
x[222] 1
x[223] 0
x[224] 1
x[225] 1
x[226] 0
x[227] 0.9999998848635
x[228] 1
x[229] 0
x[230] 1
x[231] 0
x[232] 0
x[233] 0
x[234] 0
x[235] 0
x[236] 1
x[237] 1.5540249182915863e-07
x[238] 1
x[239] 0
x[240] 0
x[241] 0
x[242] 1
x[243] 1
x[244] 0
x[245] 0
x[246] 0
x[247] 0
x[248] 1
x[249] 0
x[250] 1
x[251] 0
x[252] 0
x[253] 1
x[254] -8.8888891108952787e-08
x[255] 1
x[256] 1
x[257] 0
x[258] 1
x[259] 0
x[260] 0
x[261] 0
x[262] 1
x[263] 0
x[264] 1
x[265] 0
x[266] 1
x[267] 1.0000001480812297e+00
x[268] 0
x[269] 1
x[270] 0
x[271] 1
x[272] 1
x[273] 9.9999984777777839e-01
x[274] 1
x[275] 1
x[276] -6.1666667297710087e-08
x[277] 1
x[278] 0
x[279] 0
x[280] 1
x[281] 9.9999993333333270e-01
x[282] 0
x[283] 1
x[284] 1
x[285] 1
x[286] 0
x[287] -1.1111111099638910e-07
x[288] 0
x[289] 0
x[290] 1
x[291] 0
x[292] 1.0000001184587919e+00
x[293] 0
x[294] 0
x[295] 9.9999985291005233e-01
x[296] 1
x[297] 1
x[298] 0
x[299] 0
x[300] 0
x[301] 1
x[302] 1
x[303] 0
x[304] -4.4111111146929412e-07
x[305] 9.9999986666666552e-01
x[306] 1.5549136811852758e-07
x[307] 1
x[308] 6.6614454582092221e-08
x[309] 0
x[310] 0
x[311] 1.1820455090623138e-07
x[312] -6.3272259329304664e-08
x[313] 1
x[314] 1.0000001102685236e+00
x[315] 0
x[316] 2.7388086955344232e-07
x[317] 1
x[318] 0
x[319] 1.0000000294790461e+00
x[320] 1
x[321] 1
x[322] -6.3333333964376755e-08
x[323] 1
x[324] 9.9999979999999711e-01
x[325] 0
x[326] -2.2222222240131373e-07
x[327] 0
x[328] 1.0000000659938240e+00
x[329] -3.4074074120939068e-07
x[330] 0
x[331] 1
x[332] 1
x[333] 0
x[334] 1
x[335] -6.3272259352196669e-08
x[336] 1.0000001268813414e+00
x[337] 0
x[338] 1
x[339] 0
x[340] 0
x[341] 0
x[342] 1.0000001184037626e+00
x[343] 1
x[344] 0
x[345] 9.9999993671887866e-01
x[346] 1
x[347] 0
x[348] 1.7772633535026402e-07
x[349] 1
x[350] 0
x[351] 0
x[352] 1
x[353] 0
x[354] 1
x[355] 1
x[356] 0
x[357] 1
x[358] 0
x[359] 0
x[360] 0
x[361] 0
x[362] 1
x[363] 0
x[364] 0
x[365] 1
x[366] 1
x[367] 0
x[368] 1
x[369] 0
x[370] -1.1851851902431619e-07
x[371] 1
x[372] 0
x[373] 0
x[374] 0
x[375] 1
x[376] 1
x[377] 1
x[378] 0
x[379] 1
x[380] 0
x[381] 9.9999989193613592e-01
x[382] 1
x[383] 0
x[384] 1
x[385] 1
x[386] 0
x[387] -1.0777777766305574e-07
x[388] 1
x[389] 0
x[390] 1
x[391] 0
x[392] 1
x[393] 0
x[394] 1
x[395] 1
x[396] 1
x[397] 0
x[398] 1
x[399] 0
x[400] 1
x[401] 1
x[402] 0
x[403] 0
x[404] 1
x[405] 1.0000001184638616e+00
x[406] -1.1511529605501153e-07
x[407] 1
x[408] 1
x[409] 1
x[410] 1
x[411] 0
x[412] 1
x[413] 0
x[414] 0
x[415] 0
x[416] 1.0000002219780710e+00
x[417] 0
x[418] 0
x[419] 1
x[420] 1.7770572563707224e-07
x[421] 1
x[422] 0.999999825606998
x[423] 1
x[424] 0
x[425] 0
x[426] 0
x[427] 0
x[428] 1.0000000666151732e+00
x[429] 0
x[430] 1
x[431] 1
x[432] 0
x[433] 1
x[434] 0
x[435] 1
x[436] 0
x[437] 1
x[438] 1
x[439] 0
x[440] 0
x[441] 0
x[442] 0
x[443] 0
x[444] 0
x[445] 0
x[446] 0
x[447] 1
x[448] 1
x[449] 1
x[450] 9.9999963402116332e-01
x[451] 1
x[452] 0
x[453] 1
x[454] 9.9999988481481439e-01
x[455] 2.8419254172017307e-08
x[456] 0
x[457] 1
x[458] 0
x[459] 0
x[460] 1
x[461] 1
x[462] 0
x[463] 0
x[464] 0
x[465] 1
x[466] 1
x[467] 1
x[468] 0
x[469] 0
x[470] 0
x[471] 0
x[472] 9.9999994814814841e-01
x[473] 1
x[474] 0
x[475] 1
x[476] 0
x[477] 0
x[478] 1
x[479] 1
x[480] 0
x[481] 1
x[482] 0
x[483] 5.1791600850343929e-08
x[484] -1.1518518544353336e-07
x[485] 1
x[486] 0
x[487] 0
x[488] 1
x[489] 0
x[490] 0
x[491] 1
x[492] 0
x[493] 0
x[494] 1.5542495777322277e-07
x[495] 1
x[496] 0
x[497] 1
x[498] 1
x[499] -1.1851851899891130e-07
x[500] 0
x[501] 0
x[502] -2.5070750812971664e-08
x[503] 1
x[504] 9.9999988148148089e-01
x[505] 1
x[506] 1
x[507] 1
x[508] 1.0000000221534757e+00
x[509] 0
x[510] 1
x[511] 0
x[512] 1
x[513] 0
x[514] 0
x[515] 0
x[516] 1
x[517] 1
x[518] 0
x[519] 1
x[520] 1.0000000295418798e+00
x[521] 1
x[522] 0
x[523] 0
x[524] 0
x[525] 0
x[526] 0
x[527] -5.9259259416009956e-08
x[528] 0
x[529] 1
x[530] 0
x[531] -1.1851851877686670e-07
x[532] 0
x[533] 1
x[534] 1
x[535] 1.0000001110451391e+00
x[536] 0
x[537] 1
x[538] 1
x[539] 0
x[540] 9.9999995154173249e-01
x[541] 1
x[542] 1
x[543] -1.1851851877686670e-07
x[544] 0
x[545] 1
x[546] 1
x[547] -1.1851851877686670e-07
x[548] 1
x[549] 1
x[550] 1
x[551] 1
x[552] 0
x[553] 1
x[554] 9.9999993333333270e-01
x[555] 1
x[556] 1.0000001480122387e+00
x[557] 0
x[558] 1
x[559] 1
x[560] 1.1843314798792758e-07
x[561] 1
x[562] 1
x[563] 0
x[564] 1
x[565] 0
x[566] 1
x[567] 0
x[568] 0
x[569] 1
x[570] 1.0000001183972071e+00
x[571] 1
x[572] 1
x[573] 0
x[574] 1
x[575] 0
x[576] 0
x[577] 1
x[578] 1
x[579] 1
x[580] 1
x[581] 1.4703534334692081e-07
x[582] 1
x[583] 1
x[584] 1.0000001480466674e+00
x[585] -1.4814814882846931e-07
x[586] 0
x[587] 1.0000003554474550e+00
x[588] 0
x[589] 1
x[590] 0
x[591] 1
x[592] 0
x[593] 1
x[594] 1.0000000666194331e+00
x[595] 1
x[596] 3.6912990000557483e-07
x[597] 0
x[598] -2.9629629920267597e-08
x[599] 0
x[600] 0
x[601] 0
x[602] 1
x[603] 0
x[604] 1
x[605] 1
x[606] 1
x[607] 0
x[608] 0
x[609] 1.0000002221666171e+00
x[610] 0
x[611] 1
x[612] 0
x[613] 0
x[614] 1
x[615] 1
x[616] 1.4702598549480473e-07
x[617] 1
x[618] 0
x[619] 1
x[620] 1
x[621] 1
x[622] 1
x[623] 1
x[624] 1
x[625] 1
x[626] 0
x[627] 1
x[628] 0
x[629] 0
x[630] 1.1134256763876848e-07
x[631] 9.9999978957671853e-01
x[632] 1
x[633] 0
x[634] 0
x[635] 0
x[636] 1.0000003406892379e+00
x[637] 0
x[638] 1.1836172357781308e-07
x[639] 1
x[640] -6.6666667297710092e-08
x[641] 1
x[642] 1
x[643] 0
x[644] 0
x[645] 1
x[646] 1
x[647] 5.1795662867420316e-08
x[648] 0
x[649] 0
x[650] 0
x[651] 1
x[652] 1
x[653] 0
x[654] 0
x[655] 1
x[656] 0
x[657] 0
x[658] 1
x[659] 0
x[660] 1
x[661] 0
x[662] 1
x[663] 1
x[664] 1
x[665] 1
x[666] 0
x[667] 6.6257523092918046e-08
x[668] 0
x[669] 1
x[670] 0
x[671] 0
x[672] 0
x[673] 1
x[674] 5.1700600986335e-08
x[675] 1
x[676] 1
x[677] 0
x[678] 0
x[679] 1
x[680] 1
x[681] 0
x[682] 0
x[683] 9.9999988148147956e-01
x[684] 0
x[685] 0
x[686] 1
x[687] 0
x[688] 0
x[689] 0
x[690] 2.13699350487341e-07
x[691] 1
x[692] 0
x[693] 1
x[694] 1
x[695] 0
x[696] 0
x[697] 0
x[698] 1
x[699] 1
x[700] 1
x[701] 0
x[702] 0
x[703] 1
x[704] 0
x[705] 1
x[706] 1
x[707] 0
x[708] 0
x[709] 1
x[710] 1
x[711] 9.9999988481481428e-01
x[712] 0
x[713] 1
x[714] 1
x[715] 1
x[716] 1
x[717] 0
x[718] 1
x[719] 1
x[720] 1
x[721] 1
x[722] 1
x[723] 1
x[724] 1
x[725] 1
x[726] 0
x[727] 0
x[728] 0
x[729] 0
x[730] 0
x[731] 1
x[732] 1
x[733] 9.9999995153767052e-01
x[734] 1
x[735] 1
x[736] 1
x[737] 0
x[738] 0
x[739] 1
x[740] 1.1847342993994137e-07
x[741] 0
x[742] 1
x[743] 1.0000001184569522e+00
x[744] 0
x[745] 0
x[746] 1
x[747] 0
x[748] 0
x[749] 0
x[750] 0
x[751] 1.1846878549940713e-07
x[752] 1.0000001183663396e+00
x[753] 0
x[754] 1.1120647604122941e-07
x[755] 1.0000000294335014e+00
x[756] 0
x[757] 1
x[758] 0
x[759] 1.0000001183869065e+00
x[760] 1
x[761] 1
x[762] 1
x[763] 0
x[764] 0
x[765] 1
x[766] 1
x[767] 0
x[768] 0
x[769] 0
x[770] 1
x[771] 9.9999988860280253e-01
x[772] 1
x[773] 0
x[774] 0
x[775] 1
x[776] 0
x[777] 1
x[778] 1
x[779] -1.1518518566557797e-07
x[780] 1.1845629768020543e-07
x[781] 9.9999976638130383e-01
x[782] 1.0000001183781209e+00
x[783] 0
x[784] 3.6912513585397656e-07
x[785] 1
x[786] 0
x[787] 0
x[788] 1
x[789] 1.1606879773293496e-07
x[790] 0
x[791] 1
x[792] 0
x[793] 1
x[794] 1
x[795] 1
x[796] 1
x[797] -6.3333333964376755e-08
x[798] 0
x[799] 1
x[800] 1
x[801] 1
x[802] 0
x[803] 0
x[804] 1
x[805] 1
x[806] 1.0000001184626448e+00
x[807] 1.0000000295688223e+00
x[808] 0
x[809] 0
x[810] 0
x[811] 1
x[812] 0
x[813] 1
x[814] 0
x[815] 0
x[816] 0
x[817] 1
x[818] 1
x[819] 1
x[820] 0
x[821] 1
x[822] 0
x[823] 0
x[824] 1
x[825] 1
x[826] 0
x[827] 1
x[828] 0
x[829] 1
x[830] 1
x[831] 1
x[832] 0
x[833] 0
x[834] 0
x[835] 1
x[836] 1
x[837] 0
x[838] 1
x[839] 0
x[840] 1
x[841] 0
x[842] -2.1888888906798039e-07
x[843] 0
x[844] -1.4814814885966143e-07
x[845] 9.9999972699171924e-01
x[846] 1
x[847] 1
x[848] 0
x[849] 1
x[850] 0
x[851] 0
x[852] 1
x[853] 0
x[854] 0
x[855] 1.0000001184348539e+00
x[856] -1.1518518540568158e-07
x[857] 1
x[858] 1
x[859] 1
x[860] 0
x[861] 1
x[862] 0
x[863] 1.0000000666211311e+00
x[864] 1
x[865] 0
x[866] 0
x[867] 0
x[868] 1.0000000666150917e+00
x[869] 0
x[870] 0
x[871] 0
x[872] 1
x[873] 1
x[874] 1
x[875] 0
x[876] 0
x[877] 1
x[878] 1
x[879] 0
x[880] -1.1111111099638910e-07
x[881] 0
x[882] 0
x[883] 1
x[884] 1
x[885] 1.0000002221593507e+00
x[886] 0
x[887] 0
x[888] 1
x[889] 1
x[890] 0
x[891] 1
x[892] 9.9999985628394150e-01
x[893] 1
x[894] 1.0000002221606834e+00
x[895] 0
x[896] 0
x[897] 0
x[898] 1
x[899] 0.9999998848635
x[900] 1
x[901] 0.999999888888889
x[902] 1
x[903] 1
x[904] 0
x[905] 0
x[906] 1
x[907] 0
x[908] 0
x[909] 1
x[910] 0
x[911] 0
x[912] 9.9999984777777828e-01
x[913] 0
x[914] 1.0000000665979190e+00
x[915] 1
x[916] 9.9999997142857111e-01
x[917] 0
x[918] 1
x[919] 1
x[920] 0
x[921] 6.6610090357101766e-08
x[922] 9.9999970370370539e-01
x[923] 3.6922882216654308e-07
x[924] 1
x[925] 2.6643430118146328e-07
x[926] 1
x[927] 0
x[928] 9.9999982222222172e-01
x[929] 1.0000000774875339e+00
x[930] 1
x[931] 0
x[932] 1
x[933] 0
x[934] 1
x[935] 0
x[936] 0
x[937] 0
x[938] 1
x[939] 0
x[940] 1
x[941] 1
x[942] 1
x[943] 0
x[944] 1
x[945] 1.1832927650870739e-07
x[946] 1
x[947] 0
x[948] 0
x[949] 0
x[950] 1
x[951] 1
x[952] 0
x[953] 0
x[954] 1.0000000666042772e+00
x[955] 0
x[956] 1
x[957] 1
x[958] 1
x[959] 1
x[960] 1
x[961] 1
x[962] 0
x[963] 1
x[964] 0
x[965] 0
x[966] -2.2222222240131373e-07
x[967] 1
x[968] 1
x[969] 0
x[970] 0
x[971] 0
x[972] 1
x[973] 0
x[974] 0
x[975] 1
x[976] 1.17768302718943e-07
x[977] 1
x[978] 0
x[979] 0
x[980] 0
x[981] -1.4814814882846931e-07
x[982] 1
x[983] 1
x[984] 0
x[985] 0
x[986] 1
x[987] 0
x[988] 1.0000001110526540e+00
x[989] 0
x[990] 0
x[991] 0
x[992] 0
x[993] 1.0000001184709006e+00
x[994] 0
x[995] 1
x[996] 0
x[997] 0
x[998] 0
x[999] 1
